# Solution for model obj
# Objective value = 5.2977180266933703e+02
sp1_temp_t_inout 7.4468085106382975e-02
sp1_temp_y 1
sp2_temp_t_inout 1.0636363636666792e-01
sp2_temp_y 1
ch1_1_evap_u0 0
ch1_1_evap_u0_y 0
ch1_1_evap_v0 0
ch1_1_evap_v0_y 0
ch1_1_evap_u1 0
ch1_1_evap_u1_y 0
ch1_1_evap_v1 0
ch1_1_evap_v1_y 0
ch1_1_evap_u2 0
ch1_1_evap_u2_y 0
ch1_1_evap_v2 0
ch1_1_evap_v2_y 0
ch1_1_evap_u3 0
ch1_1_evap_u3_y 0
ch1_1_evap_v3 0
ch1_1_evap_v3_y 0
ch1_1_evap_u4 0
ch1_1_evap_u4_y 0
ch1_1_evap_v4 0
ch1_1_evap_v4_y 0
ch1_1_evap_u5 0
ch1_1_evap_u5_y 0
ch1_1_evap_v5 0
ch1_1_evap_v5_y 0
ch1_1_evap_u6 0
ch1_1_evap_u6_y 0
ch1_1_evap_v6 0
ch1_1_evap_v6_y 0
ch1_1_evap_u7 0
ch1_1_evap_u7_y 0
ch1_1_evap_v7 0
ch1_1_evap_v7_y 0
ch1_1_evap_u8 0
ch1_1_evap_u8_y 0
ch1_1_evap_v8 0
ch1_1_evap_v8_y 0
ch1_1_evap_u9 0
ch1_1_evap_u9_y 0
ch1_1_evap_v9 0
ch1_1_evap_v9_y 0
ch1_1_evap_u10 0
ch1_1_evap_u10_y 0
ch1_1_evap_v10 0
ch1_1_evap_v10_y 0
ch1_1_evap_u11 0
ch1_1_evap_u11_y 0
ch1_1_evap_v11 0
ch1_1_evap_v11_y 0
ch1_1_evap_u12 0
ch1_1_evap_u12_y 0
ch1_1_evap_v12 0
ch1_1_evap_v12_y 0
ch1_1_evap_u13 0
ch1_1_evap_u13_y 0
ch1_1_evap_v13 0
ch1_1_evap_v13_y 0
ch1_1_evap_u14 0
ch1_1_evap_u14_y 0
ch1_1_evap_v14 0
ch1_1_evap_v14_y 0
ch1_1_evap_u15 0
ch1_1_evap_u15_y 0
ch1_1_evap_v15 0
ch1_1_evap_v15_y 0
ch1_1_evap_u16 0
ch1_1_evap_u16_y 0
ch1_1_evap_v16 0
ch1_1_evap_v16_y 0
ch1_1_evap_u17 0
ch1_1_evap_u17_y 0
ch1_1_evap_v17 0
ch1_1_evap_v17_y 0
ch1_1_evap_u18 0
ch1_1_evap_u18_y 0
ch1_1_evap_v18 0
ch1_1_evap_v18_y 0
ch1_1_evap_u19 0
ch1_1_evap_u19_y 0
ch1_1_evap_v19 0
ch1_1_evap_v19_y 0
ch1_2_evap_u0 0
ch1_2_evap_u0_y 0
ch1_2_evap_v0 0
ch1_2_evap_v0_y 0
ch1_2_evap_u1 0
ch1_2_evap_u1_y 0
ch1_2_evap_v1 0
ch1_2_evap_v1_y 0
ch1_2_evap_u2 0
ch1_2_evap_u2_y 0
ch1_2_evap_v2 0
ch1_2_evap_v2_y 0
ch1_2_evap_u3 0
ch1_2_evap_u3_y 0
ch1_2_evap_v3 0
ch1_2_evap_v3_y 0
ch1_2_evap_u4 0
ch1_2_evap_u4_y 0
ch1_2_evap_v4 0
ch1_2_evap_v4_y 0
ch1_2_evap_u5 0
ch1_2_evap_u5_y 0
ch1_2_evap_v5 0
ch1_2_evap_v5_y 0
ch1_2_evap_u6 0
ch1_2_evap_u6_y 0
ch1_2_evap_v6 0
ch1_2_evap_v6_y 0
ch1_2_evap_u7 0
ch1_2_evap_u7_y 0
ch1_2_evap_v7 0
ch1_2_evap_v7_y 0
ch1_2_evap_u8 0
ch1_2_evap_u8_y 0
ch1_2_evap_v8 0
ch1_2_evap_v8_y 0
ch1_2_evap_u9 0
ch1_2_evap_u9_y 0
ch1_2_evap_v9 0
ch1_2_evap_v9_y 0
ch1_2_evap_u10 0
ch1_2_evap_u10_y 0
ch1_2_evap_v10 0
ch1_2_evap_v10_y 0
ch1_2_evap_u11 0
ch1_2_evap_u11_y 0
ch1_2_evap_v11 0
ch1_2_evap_v11_y 0
ch1_2_evap_u12 0
ch1_2_evap_u12_y 0
ch1_2_evap_v12 0
ch1_2_evap_v12_y 0
ch1_2_evap_u13 0
ch1_2_evap_u13_y 0
ch1_2_evap_v13 0
ch1_2_evap_v13_y 0
ch1_2_evap_u14 0
ch1_2_evap_u14_y 0
ch1_2_evap_v14 0
ch1_2_evap_v14_y 0
ch1_2_evap_u15 0
ch1_2_evap_u15_y 0
ch1_2_evap_v15 0
ch1_2_evap_v15_y 0
ch1_2_evap_u16 0
ch1_2_evap_u16_y 0
ch1_2_evap_v16 0
ch1_2_evap_v16_y 0
ch1_2_evap_u17 0
ch1_2_evap_u17_y 0
ch1_2_evap_v17 0
ch1_2_evap_v17_y 0
ch1_2_evap_u18 0
ch1_2_evap_u18_y 0
ch1_2_evap_v18 0
ch1_2_evap_v18_y 0
ch1_2_evap_u19 0
ch1_2_evap_u19_y 0
ch1_2_evap_v19 0
ch1_2_evap_v19_y 0
ch1_3_evap_u0 0
ch1_3_evap_u0_y 0
ch1_3_evap_v0 0
ch1_3_evap_v0_y 0
ch1_3_evap_u1 0
ch1_3_evap_u1_y 0
ch1_3_evap_v1 0
ch1_3_evap_v1_y 0
ch1_3_evap_u2 0
ch1_3_evap_u2_y 0
ch1_3_evap_v2 0
ch1_3_evap_v2_y 0
ch1_3_evap_u3 0
ch1_3_evap_u3_y 0
ch1_3_evap_v3 0
ch1_3_evap_v3_y 0
ch1_3_evap_u4 0
ch1_3_evap_u4_y 0
ch1_3_evap_v4 0
ch1_3_evap_v4_y 0
ch1_3_evap_u5 0
ch1_3_evap_u5_y 0
ch1_3_evap_v5 0
ch1_3_evap_v5_y 0
ch1_3_evap_u6 0
ch1_3_evap_u6_y 0
ch1_3_evap_v6 0
ch1_3_evap_v6_y 0
ch1_3_evap_u7 0
ch1_3_evap_u7_y 0
ch1_3_evap_v7 0
ch1_3_evap_v7_y 0
ch1_3_evap_u8 0
ch1_3_evap_u8_y 0
ch1_3_evap_v8 0
ch1_3_evap_v8_y 0
ch1_3_evap_u9 0
ch1_3_evap_u9_y 0
ch1_3_evap_v9 0
ch1_3_evap_v9_y 0
ch1_3_evap_u10 0
ch1_3_evap_u10_y 0
ch1_3_evap_v10 0
ch1_3_evap_v10_y 0
ch1_3_evap_u11 0
ch1_3_evap_u11_y 0
ch1_3_evap_v11 0
ch1_3_evap_v11_y 0
ch1_3_evap_u12 0
ch1_3_evap_u12_y 0
ch1_3_evap_v12 0
ch1_3_evap_v12_y 0
ch1_3_evap_u13 0
ch1_3_evap_u13_y 0
ch1_3_evap_v13 0
ch1_3_evap_v13_y 0
ch1_3_evap_u14 0
ch1_3_evap_u14_y 0
ch1_3_evap_v14 0
ch1_3_evap_v14_y 0
ch1_3_evap_u15 0
ch1_3_evap_u15_y 0
ch1_3_evap_v15 0
ch1_3_evap_v15_y 0
ch1_3_evap_u16 0
ch1_3_evap_u16_y 0
ch1_3_evap_v16 0
ch1_3_evap_v16_y 0
ch1_3_evap_u17 0
ch1_3_evap_u17_y 0
ch1_3_evap_v17 0
ch1_3_evap_v17_y 0
ch1_3_evap_u18 0
ch1_3_evap_u18_y 0
ch1_3_evap_v18 0
ch1_3_evap_v18_y 0
ch1_3_evap_u19 0
ch1_3_evap_u19_y 0
ch1_3_evap_v19 0
ch1_3_evap_v19_y 0
ch1_4_evap_u0 0
ch1_4_evap_u0_y 0
ch1_4_evap_v0 0
ch1_4_evap_v0_y 0
ch1_4_evap_u1 0
ch1_4_evap_u1_y 0
ch1_4_evap_v1 0
ch1_4_evap_v1_y 0
ch1_4_evap_u2 0
ch1_4_evap_u2_y 0
ch1_4_evap_v2 0
ch1_4_evap_v2_y 0
ch1_4_evap_u3 0
ch1_4_evap_u3_y 0
ch1_4_evap_v3 0
ch1_4_evap_v3_y 0
ch1_4_evap_u4 0
ch1_4_evap_u4_y 0
ch1_4_evap_v4 0
ch1_4_evap_v4_y 0
ch1_4_evap_u5 0
ch1_4_evap_u5_y 0
ch1_4_evap_v5 0
ch1_4_evap_v5_y 0
ch1_4_evap_u6 0
ch1_4_evap_u6_y 0
ch1_4_evap_v6 0
ch1_4_evap_v6_y 0
ch1_4_evap_u7 0
ch1_4_evap_u7_y 0
ch1_4_evap_v7 0
ch1_4_evap_v7_y 0
ch1_4_evap_u8 0
ch1_4_evap_u8_y 0
ch1_4_evap_v8 0
ch1_4_evap_v8_y 0
ch1_4_evap_u9 0
ch1_4_evap_u9_y 0
ch1_4_evap_v9 0
ch1_4_evap_v9_y 0
ch1_4_evap_u10 0
ch1_4_evap_u10_y 0
ch1_4_evap_v10 0
ch1_4_evap_v10_y 0
ch1_4_evap_u11 0
ch1_4_evap_u11_y 0
ch1_4_evap_v11 0
ch1_4_evap_v11_y 0
ch1_4_evap_u12 0
ch1_4_evap_u12_y 0
ch1_4_evap_v12 0
ch1_4_evap_v12_y 0
ch1_4_evap_u13 0
ch1_4_evap_u13_y 0
ch1_4_evap_v13 0
ch1_4_evap_v13_y 0
ch1_4_evap_u14 0
ch1_4_evap_u14_y 0
ch1_4_evap_v14 4.3674406262268073e-01
ch1_4_evap_v14_y 1
ch1_4_evap_u15 1.5632559373773192e+00
ch1_4_evap_u15_y 1
ch1_4_evap_v15 0
ch1_4_evap_v15_y 0
ch1_4_evap_u16 0
ch1_4_evap_u16_y 0
ch1_4_evap_v16 0
ch1_4_evap_v16_y 0
ch1_4_evap_u17 0
ch1_4_evap_u17_y 0
ch1_4_evap_v17 0
ch1_4_evap_v17_y 0
ch1_4_evap_u18 0
ch1_4_evap_u18_y 0
ch1_4_evap_v18 0
ch1_4_evap_v18_y 0
ch1_4_evap_u19 0
ch1_4_evap_u19_y 0
ch1_4_evap_v19 0
ch1_4_evap_v19_y 0
ch2_1_evap_u0 0
ch2_1_evap_u0_y 0
ch2_1_evap_v0 0
ch2_1_evap_v0_y 0
ch2_1_evap_u1 0
ch2_1_evap_u1_y 0
ch2_1_evap_v1 0
ch2_1_evap_v1_y 0
ch2_1_evap_u2 0
ch2_1_evap_u2_y 0
ch2_1_evap_v2 0
ch2_1_evap_v2_y 0
ch2_1_evap_u3 0
ch2_1_evap_u3_y 0
ch2_1_evap_v3 0
ch2_1_evap_v3_y 0
ch2_1_evap_u4 0
ch2_1_evap_u4_y 0
ch2_1_evap_v4 0
ch2_1_evap_v4_y 0
ch2_1_evap_u5 0
ch2_1_evap_u5_y 0
ch2_1_evap_v5 0
ch2_1_evap_v5_y 0
ch2_1_evap_u6 0
ch2_1_evap_u6_y 0
ch2_1_evap_v6 0
ch2_1_evap_v6_y 0
ch2_1_evap_u7 0
ch2_1_evap_u7_y 0
ch2_1_evap_v7 0
ch2_1_evap_v7_y 0
ch2_1_evap_u8 0
ch2_1_evap_u8_y 0
ch2_1_evap_v8 0
ch2_1_evap_v8_y 0
ch2_1_evap_u9 0
ch2_1_evap_u9_y 0
ch2_1_evap_v9 0
ch2_1_evap_v9_y 0
ch2_1_evap_u10 0
ch2_1_evap_u10_y 0
ch2_1_evap_v10 0
ch2_1_evap_v10_y 0
ch2_1_evap_u11 0
ch2_1_evap_u11_y 0
ch2_1_evap_v11 0
ch2_1_evap_v11_y 0
ch2_1_evap_u12 0
ch2_1_evap_u12_y 0
ch2_1_evap_v12 0
ch2_1_evap_v12_y 0
ch2_1_evap_u13 0
ch2_1_evap_u13_y 0
ch2_1_evap_v13 0
ch2_1_evap_v13_y 0
ch2_1_evap_u14 0
ch2_1_evap_u14_y 0
ch2_1_evap_v14 0
ch2_1_evap_v14_y 0
ch2_1_evap_u15 0
ch2_1_evap_u15_y 0
ch2_1_evap_v15 0
ch2_1_evap_v15_y 0
ch2_1_evap_u16 0
ch2_1_evap_u16_y 0
ch2_1_evap_v16 0
ch2_1_evap_v16_y 0
ch2_1_evap_u17 0
ch2_1_evap_u17_y 0
ch2_1_evap_v17 0
ch2_1_evap_v17_y 0
ch2_1_evap_u18 0
ch2_1_evap_u18_y 0
ch2_1_evap_v18 0
ch2_1_evap_v18_y 0
ch2_1_evap_u19 0
ch2_1_evap_u19_y 0
ch2_1_evap_v19 0
ch2_1_evap_v19_y 0
ch2_2_evap_u0 0
ch2_2_evap_u0_y 0
ch2_2_evap_v0 0
ch2_2_evap_v0_y 0
ch2_2_evap_u1 0
ch2_2_evap_u1_y 0
ch2_2_evap_v1 0
ch2_2_evap_v1_y 0
ch2_2_evap_u2 0
ch2_2_evap_u2_y 0
ch2_2_evap_v2 0
ch2_2_evap_v2_y 0
ch2_2_evap_u3 0
ch2_2_evap_u3_y 0
ch2_2_evap_v3 0
ch2_2_evap_v3_y 0
ch2_2_evap_u4 0
ch2_2_evap_u4_y 0
ch2_2_evap_v4 0
ch2_2_evap_v4_y 0
ch2_2_evap_u5 0
ch2_2_evap_u5_y 0
ch2_2_evap_v5 0
ch2_2_evap_v5_y 0
ch2_2_evap_u6 0
ch2_2_evap_u6_y 0
ch2_2_evap_v6 0
ch2_2_evap_v6_y 0
ch2_2_evap_u7 0
ch2_2_evap_u7_y 0
ch2_2_evap_v7 0
ch2_2_evap_v7_y 0
ch2_2_evap_u8 0
ch2_2_evap_u8_y 0
ch2_2_evap_v8 0
ch2_2_evap_v8_y 0
ch2_2_evap_u9 0
ch2_2_evap_u9_y 0
ch2_2_evap_v9 0
ch2_2_evap_v9_y 0
ch2_2_evap_u10 0
ch2_2_evap_u10_y 0
ch2_2_evap_v10 0
ch2_2_evap_v10_y 0
ch2_2_evap_u11 0
ch2_2_evap_u11_y 0
ch2_2_evap_v11 0
ch2_2_evap_v11_y 0
ch2_2_evap_u12 0
ch2_2_evap_u12_y 0
ch2_2_evap_v12 0
ch2_2_evap_v12_y 0
ch2_2_evap_u13 0
ch2_2_evap_u13_y 0
ch2_2_evap_v13 0
ch2_2_evap_v13_y 0
ch2_2_evap_u14 0
ch2_2_evap_u14_y 0
ch2_2_evap_v14 0
ch2_2_evap_v14_y 0
ch2_2_evap_u15 0
ch2_2_evap_u15_y 0
ch2_2_evap_v15 0
ch2_2_evap_v15_y 0
ch2_2_evap_u16 0
ch2_2_evap_u16_y 0
ch2_2_evap_v16 0
ch2_2_evap_v16_y 0
ch2_2_evap_u17 0
ch2_2_evap_u17_y 0
ch2_2_evap_v17 0
ch2_2_evap_v17_y 0
ch2_2_evap_u18 0
ch2_2_evap_u18_y 0
ch2_2_evap_v18 0
ch2_2_evap_v18_y 0
ch2_2_evap_u19 0
ch2_2_evap_u19_y 0
ch2_2_evap_v19 0
ch2_2_evap_v19_y 0
ch2_3_evap_u0 0
ch2_3_evap_u0_y 0
ch2_3_evap_v0 0
ch2_3_evap_v0_y 0
ch2_3_evap_u1 0
ch2_3_evap_u1_y 0
ch2_3_evap_v1 0
ch2_3_evap_v1_y 0
ch2_3_evap_u2 0
ch2_3_evap_u2_y 0
ch2_3_evap_v2 0
ch2_3_evap_v2_y 0
ch2_3_evap_u3 0
ch2_3_evap_u3_y 0
ch2_3_evap_v3 0
ch2_3_evap_v3_y 0
ch2_3_evap_u4 0
ch2_3_evap_u4_y 0
ch2_3_evap_v4 0
ch2_3_evap_v4_y 0
ch2_3_evap_u5 0
ch2_3_evap_u5_y 0
ch2_3_evap_v5 0
ch2_3_evap_v5_y 0
ch2_3_evap_u6 0
ch2_3_evap_u6_y 0
ch2_3_evap_v6 0
ch2_3_evap_v6_y 0
ch2_3_evap_u7 0
ch2_3_evap_u7_y 0
ch2_3_evap_v7 0
ch2_3_evap_v7_y 0
ch2_3_evap_u8 0
ch2_3_evap_u8_y 0
ch2_3_evap_v8 0
ch2_3_evap_v8_y 0
ch2_3_evap_u9 0
ch2_3_evap_u9_y 0
ch2_3_evap_v9 0
ch2_3_evap_v9_y 0
ch2_3_evap_u10 0
ch2_3_evap_u10_y 0
ch2_3_evap_v10 0
ch2_3_evap_v10_y 0
ch2_3_evap_u11 0
ch2_3_evap_u11_y 0
ch2_3_evap_v11 0
ch2_3_evap_v11_y 0
ch2_3_evap_u12 0
ch2_3_evap_u12_y 0
ch2_3_evap_v12 0
ch2_3_evap_v12_y 0
ch2_3_evap_u13 0
ch2_3_evap_u13_y 0
ch2_3_evap_v13 0
ch2_3_evap_v13_y 0
ch2_3_evap_u14 0
ch2_3_evap_u14_y 0
ch2_3_evap_v14 0
ch2_3_evap_v14_y 0
ch2_3_evap_u15 0
ch2_3_evap_u15_y 0
ch2_3_evap_v15 0
ch2_3_evap_v15_y 0
ch2_3_evap_u16 0
ch2_3_evap_u16_y 0
ch2_3_evap_v16 0
ch2_3_evap_v16_y 0
ch2_3_evap_u17 0
ch2_3_evap_u17_y 0
ch2_3_evap_v17 0
ch2_3_evap_v17_y 0
ch2_3_evap_u18 0
ch2_3_evap_u18_y 0
ch2_3_evap_v18 0
ch2_3_evap_v18_y 0
ch2_3_evap_u19 0
ch2_3_evap_u19_y 0
ch2_3_evap_v19 0
ch2_3_evap_v19_y 0
ch2_4_evap_u0 0
ch2_4_evap_u0_y 0
ch2_4_evap_v0 0
ch2_4_evap_v0_y 0
ch2_4_evap_u1 0
ch2_4_evap_u1_y 0
ch2_4_evap_v1 0
ch2_4_evap_v1_y 0
ch2_4_evap_u2 0
ch2_4_evap_u2_y 0
ch2_4_evap_v2 0
ch2_4_evap_v2_y 0
ch2_4_evap_u3 0
ch2_4_evap_u3_y 0
ch2_4_evap_v3 0
ch2_4_evap_v3_y 0
ch2_4_evap_u4 0
ch2_4_evap_u4_y 0
ch2_4_evap_v4 0
ch2_4_evap_v4_y 0
ch2_4_evap_u5 0
ch2_4_evap_u5_y 0
ch2_4_evap_v5 0
ch2_4_evap_v5_y 0
ch2_4_evap_u6 0
ch2_4_evap_u6_y 0
ch2_4_evap_v6 0
ch2_4_evap_v6_y 0
ch2_4_evap_u7 0
ch2_4_evap_u7_y 0
ch2_4_evap_v7 0
ch2_4_evap_v7_y 0
ch2_4_evap_u8 0
ch2_4_evap_u8_y 0
ch2_4_evap_v8 0
ch2_4_evap_v8_y 0
ch2_4_evap_u9 0
ch2_4_evap_u9_y 0
ch2_4_evap_v9 0
ch2_4_evap_v9_y 0
ch2_4_evap_u10 0
ch2_4_evap_u10_y 0
ch2_4_evap_v10 0
ch2_4_evap_v10_y 0
ch2_4_evap_u11 0
ch2_4_evap_u11_y 0
ch2_4_evap_v11 0
ch2_4_evap_v11_y 0
ch2_4_evap_u12 0
ch2_4_evap_u12_y 0
ch2_4_evap_v12 0
ch2_4_evap_v12_y 0
ch2_4_evap_u13 0
ch2_4_evap_u13_y 0
ch2_4_evap_v13 0
ch2_4_evap_v13_y 0
ch2_4_evap_u14 0
ch2_4_evap_u14_y 0
ch2_4_evap_v14 0
ch2_4_evap_v14_y 0
ch2_4_evap_u15 0
ch2_4_evap_u15_y 0
ch2_4_evap_v15 0
ch2_4_evap_v15_y 0
ch2_4_evap_u16 0
ch2_4_evap_u16_y 0
ch2_4_evap_v16 0
ch2_4_evap_v16_y 0
ch2_4_evap_u17 0
ch2_4_evap_u17_y 0
ch2_4_evap_v17 0
ch2_4_evap_v17_y 0
ch2_4_evap_u18 0
ch2_4_evap_u18_y 0
ch2_4_evap_v18 0
ch2_4_evap_v18_y 0
ch2_4_evap_u19 0
ch2_4_evap_u19_y 0
ch2_4_evap_v19 0
ch2_4_evap_v19_y 0
gv2_ss_u0 0
gv2_ss_u0_y 0
gv2_ss_v0 0
gv2_ss_v0_y 0
gv2_ss_u1 0
gv2_ss_u1_y 0
gv2_ss_v1 0
gv2_ss_v1_y 0
gv2_ss_u2 0
gv2_ss_u2_y 0
gv2_ss_v2 0
gv2_ss_v2_y 0
gv2_ss_u3 0
gv2_ss_u3_y 0
gv2_ss_v3 0
gv2_ss_v3_y 0
gv2_ss_u4 0
gv2_ss_u4_y 0
gv2_ss_v4 0
gv2_ss_v4_y 0
gv2_ss_u5 0
gv2_ss_u5_y 0
gv2_ss_v5 0
gv2_ss_v5_y 0
gv2_ss_u6 6.1702127659574468e-01
gv2_ss_u6_y 1
gv2_ss_v6 0
gv2_ss_v6_y 0
gv2_ss_u7 0
gv2_ss_u7_y 0
gv2_ss_v7 0
gv2_ss_v7_y 0
gv2_ss_u8 0
gv2_ss_u8_y 0
gv2_ss_v8 0
gv2_ss_v8_y 0
gv2_ss_u9 0
gv2_ss_u9_y 0
gv2_ss_v9 0
gv2_ss_v9_y 0
gv2_ss_u10 0
gv2_ss_u10_y 0
gv2_ss_v10 0
gv2_ss_v10_y 1
gv2_ss_u11 0
gv2_ss_u11_y 0
gv2_ss_v11 0
gv2_ss_v11_y 0
gv2_ss_u12 0
gv2_ss_u12_y 0
gv2_ss_v12 0
gv2_ss_v12_y 0
gv2_ss_u13 0
gv2_ss_u13_y 0
gv2_ss_v13 0
gv2_ss_v13_y 0
gv2_ss_u14 0
gv2_ss_u14_y 0
gv2_ss_v14 0
gv2_ss_v14_y 0
gv2_ss_u15 0
gv2_ss_u15_y 0
gv2_ss_v15 0
gv2_ss_v15_y 0
gv2_ss_u16 0
gv2_ss_u16_y 0
gv2_ss_v16 0
gv2_ss_v16_y 0
gv2_ss_u17 0
gv2_ss_u17_y 0
gv2_ss_v17 0
gv2_ss_v17_y 0
gv2_ss_u18 0
gv2_ss_u18_y 0
gv2_ss_v18 0
gv2_ss_v18_y 0
gv2_ss_u19 0
gv2_ss_u19_y 0
gv2_ss_v19 0
gv2_ss_v19_y 0
hsb_ss_u0 0
hsb_ss_u0_y 0
hsb_ss_v0 0
hsb_ss_v0_y 0
hsb_ss_u1 0
hsb_ss_u1_y 0
hsb_ss_v1 0
hsb_ss_v1_y 0
hsb_ss_u2 0
hsb_ss_u2_y 0
hsb_ss_v2 0
hsb_ss_v2_y 0
hsb_ss_u3 0
hsb_ss_u3_y 0
hsb_ss_v3 0
hsb_ss_v3_y 0
hsb_ss_u4 0
hsb_ss_u4_y 0
hsb_ss_v4 0
hsb_ss_v4_y 0
hsb_ss_u5 0
hsb_ss_u5_y 0
hsb_ss_v5 0
hsb_ss_v5_y 0
hsb_ss_u6 6.1702127659574513e-01
hsb_ss_u6_y 1
hsb_ss_v6 0
hsb_ss_v6_y 0
hsb_ss_u7 0
hsb_ss_u7_y 0
hsb_ss_v7 0
hsb_ss_v7_y 0
hsb_ss_u8 0
hsb_ss_u8_y 0
hsb_ss_v8 0
hsb_ss_v8_y 0
hsb_ss_u9 0
hsb_ss_u9_y 0
hsb_ss_v9 0
hsb_ss_v9_y 0
hsb_ss_u10 0
hsb_ss_u10_y 0
hsb_ss_v10 0
hsb_ss_v10_y 1
hsb_ss_u11 0
hsb_ss_u11_y 0
hsb_ss_v11 0
hsb_ss_v11_y 0
hsb_ss_u12 0
hsb_ss_u12_y 0
hsb_ss_v12 0
hsb_ss_v12_y 0
hsb_ss_u13 0
hsb_ss_u13_y 0
hsb_ss_v13 0
hsb_ss_v13_y 0
hsb_ss_u14 0
hsb_ss_u14_y 0
hsb_ss_v14 0
hsb_ss_v14_y 0
hsb_ss_u15 0
hsb_ss_u15_y 0
hsb_ss_v15 0
hsb_ss_v15_y 0
hsb_ss_u16 0
hsb_ss_u16_y 0
hsb_ss_v16 0
hsb_ss_v16_y 0
hsb_ss_u17 0
hsb_ss_u17_y 0
hsb_ss_v17 0
hsb_ss_v17_y 0
hsb_ss_u18 0
hsb_ss_u18_y 0
hsb_ss_v18 0
hsb_ss_v18_y 0
hsb_ss_u19 0
hsb_ss_u19_y 0
hsb_ss_v19 0
hsb_ss_v19_y 0
pfa_ss_u0 0
pfa_ss_u0_y 0
pfa_ss_v0 0
pfa_ss_v0_y 0
pfa_ss_u1 0
pfa_ss_u1_y 0
pfa_ss_v1 0
pfa_ss_v1_y 0
pfa_ss_u2 0
pfa_ss_u2_y 0
pfa_ss_v2 0
pfa_ss_v2_y 0
pfa_ss_u3 0
pfa_ss_u3_y 0
pfa_ss_v3 0
pfa_ss_v3_y 0
pfa_ss_u4 0
pfa_ss_u4_y 0
pfa_ss_v4 0
pfa_ss_v4_y 0
pfa_ss_u5 0
pfa_ss_u5_y 0
pfa_ss_v5 0
pfa_ss_v5_y 0
pfa_ss_u6 6.1702127659574468e-01
pfa_ss_u6_y 1
pfa_ss_v6 0
pfa_ss_v6_y 0
pfa_ss_u7 0
pfa_ss_u7_y 0
pfa_ss_v7 0
pfa_ss_v7_y 0
pfa_ss_u8 0
pfa_ss_u8_y 0
pfa_ss_v8 0
pfa_ss_v8_y 0
pfa_ss_u9 0
pfa_ss_u9_y 0
pfa_ss_v9 0
pfa_ss_v9_y 0
pfa_ss_u10 0
pfa_ss_u10_y 0
pfa_ss_v10 0
pfa_ss_v10_y 1
pfa_ss_u11 0
pfa_ss_u11_y 0
pfa_ss_v11 0
pfa_ss_v11_y 0
pfa_ss_u12 0
pfa_ss_u12_y 0
pfa_ss_v12 0
pfa_ss_v12_y 0
pfa_ss_u13 0
pfa_ss_u13_y 0
pfa_ss_v13 0
pfa_ss_v13_y 0
pfa_ss_u14 0
pfa_ss_u14_y 0
pfa_ss_v14 0
pfa_ss_v14_y 0
pfa_ss_u15 0
pfa_ss_u15_y 0
pfa_ss_v15 0
pfa_ss_v15_y 0
pfa_ss_u16 0
pfa_ss_u16_y 0
pfa_ss_v16 0
pfa_ss_v16_y 0
pfa_ss_u17 0
pfa_ss_u17_y 0
pfa_ss_v17 0
pfa_ss_v17_y 0
pfa_ss_u18 0
pfa_ss_u18_y 0
pfa_ss_v18 0
pfa_ss_v18_y 0
pfa_ss_u19 0
pfa_ss_u19_y 0
pfa_ss_v19 0
pfa_ss_v19_y 0
cp_nwk_u0 0
cp_nwk_u0_y 0
cp_nwk_v0 0
cp_nwk_v0_y 0
cp_nwk_u1 1.4893617021276595e-01
cp_nwk_u1_y 1
cp_nwk_v1 0
cp_nwk_v1_y 0
cp_nwk_u2 0
cp_nwk_u2_y 0
cp_nwk_v2 0
cp_nwk_v2_y 0
cp_nwk_u3 0
cp_nwk_u3_y 0
cp_nwk_v3 0
cp_nwk_v3_y 0
cp_nwk_u4 0
cp_nwk_u4_y 0
cp_nwk_v4 0
cp_nwk_v4_y 0
cp_nwk_u5 0
cp_nwk_u5_y 0
cp_nwk_v5 0
cp_nwk_v5_y 0
cp_nwk_u6 0
cp_nwk_u6_y 0
cp_nwk_v6 0
cp_nwk_v6_y 0
cp_nwk_u7 0
cp_nwk_u7_y 0
cp_nwk_v7 0
cp_nwk_v7_y 0
cp_nwk_u8 0
cp_nwk_u8_y 0
cp_nwk_v8 0
cp_nwk_v8_y 0
cp_nwk_u9 0
cp_nwk_u9_y 0
cp_nwk_v9 0
cp_nwk_v9_y 0
cp_nwk_u10 0
cp_nwk_u10_y 0
cp_nwk_v10 0
cp_nwk_v10_y 1
cp_nwk_u11 0
cp_nwk_u11_y 0
cp_nwk_v11 0
cp_nwk_v11_y 0
cp_nwk_u12 0
cp_nwk_u12_y 0
cp_nwk_v12 0
cp_nwk_v12_y 0
cp_nwk_u13 0
cp_nwk_u13_y 0
cp_nwk_v13 0
cp_nwk_v13_y 0
cp_nwk_u14 0
cp_nwk_u14_y 0
cp_nwk_v14 0
cp_nwk_v14_y 0
cp_nwk_u15 0
cp_nwk_u15_y 0
cp_nwk_v15 0
cp_nwk_v15_y 0
cp_nwk_u16 0
cp_nwk_u16_y 0
cp_nwk_v16 0
cp_nwk_v16_y 0
cp_nwk_u17 0
cp_nwk_u17_y 0
cp_nwk_v17 0
cp_nwk_v17_y 0
cp_nwk_u18 0
cp_nwk_u18_y 0
cp_nwk_v18 0
cp_nwk_v18_y 0
cp_nwk_u19 0
cp_nwk_u19_y 0
cp_nwk_v19 0
cp_nwk_v19_y 0
ch_evap_ret_t_in 1
ch_evap_ret_y 1
ch_e_f_c_mass_flow 1
ch_e_f_c_y 1
ch1_1_evap_y 0
ch1_2_evap_y 0
ch1_3_evap_y 0
ch1_4_evap_y 1
ch2_1_evap_y 0
ch2_2_evap_y 0
ch2_3_evap_y 0
ch2_4_evap_y 0
gv2_ss_y 1
hsb_ss_y 1
pfa_ss_y 1
cp_nwk_y 1
